60
1 0 1
2 0 6
2 1 4
3 0 37
3 1 48
3 2 33
4 0 14
4 1 15
4 2 8
4 3 42
5 0 21
5 1 21
5 2 25
5 3 40
5 4 10
6 0 17
6 1 36
6 2 29
6 3 46
6 4 10
6 5 43
7 0 6
7 1 7
7 2 30
7 3 16
7 4 23
7 5 1
7 6 9
8 0 1
8 1 30
8 2 28
8 3 24
8 4 30
8 5 23
8 6 2
8 7 14
9 0 14
9 1 43
9 2 17
9 3 30
9 4 48
9 5 12
9 6 45
9 7 14
9 8 44
10 0 4
10 1 21
10 2 48
10 3 33
10 4 34
10 5 47
10 6 26
10 7 27
10 8 2
10 9 27
11 0 37
11 1 14
11 2 50
11 3 33
11 4 22
11 5 7
11 6 37
11 7 16
11 8 20
11 9 25
11 10 29
12 0 19
12 1 44
12 2 22
12 3 12
12 4 25
12 5 27
12 6 9
12 7 22
12 8 42
12 9 7
12 10 3
12 11 8
13 0 14
13 1 2
13 2 42
13 3 16
13 4 45
13 5 39
13 6 6
13 7 10
13 8 3
13 9 47
13 10 17
13 11 16
13 12 50
14 0 14
14 1 28
14 2 21
14 3 11
14 4 34
14 5 8
14 6 25
14 7 38
14 8 19
14 9 48
14 10 33
14 11 12
14 12 46
14 13 29
15 0 32
15 1 17
15 2 10
15 3 43
15 4 27
15 5 44
15 6 45
15 7 35
15 8 7
15 9 50
15 10 9
15 11 45
15 12 35
15 13 37
15 14 16
16 0 18
16 1 9
16 2 17
16 3 39
16 4 13
16 5 25
16 6 42
16 7 32
16 8 34
16 9 39
16 10 40
16 11 41
16 12 46
16 13 6
16 14 28
16 15 4
17 0 34
17 1 16
17 2 40
17 3 45
17 4 18
17 5 8
17 6 36
17 7 45
17 8 31
17 9 43
17 10 6
17 11 7
17 12 44
17 13 14
17 14 46
17 15 25
17 16 6
18 0 50
18 1 2
18 2 7
18 3 24
18 4 36
18 5 44
18 6 35
18 7 11
18 8 21
18 9 26
18 10 21
18 11 21
18 12 43
18 13 20
18 14 45
18 15 9
18 16 3
18 17 18
19 0 37
19 1 9
19 2 16
19 3 2
19 4 20
19 5 8
19 6 49
19 7 13
19 8 5
19 9 14
19 10 16
19 11 23
19 12 26
19 13 40
19 14 38
19 15 41
19 16 35
19 17 15
19 18 37
20 0 25
20 1 6
20 2 21
20 3 36
20 4 33
20 5 21
20 6 44
20 7 8
20 8 49
20 9 32
20 10 15
20 11 27
20 12 11
20 13 14
20 14 48
20 15 33
20 16 13
20 17 30
20 18 30
20 19 42
21 0 39
21 1 28
21 2 47
21 3 37
21 4 15
21 5 43
21 6 16
21 7 2
21 8 14
21 9 35
21 10 1
21 11 45
21 12 36
21 13 3
21 14 38
21 15 12
21 16 9
21 17 48
21 18 30
21 19 13
21 20 14
22 0 44
22 1 13
22 2 19
22 3 9
22 4 50
22 5 36
22 6 1
22 7 18
22 8 27
22 9 14
22 10 21
22 11 3
22 12 44
22 13 32
22 14 44
22 15 41
22 16 10
22 17 39
22 18 38
22 19 12
22 20 15
22 21 25
23 0 10
23 1 43
23 2 19
23 3 3
23 4 33
23 5 30
23 6 7
23 7 1
23 8 14
23 9 21
23 10 20
23 11 33
23 12 5
23 13 47
23 14 9
23 15 13
23 16 15
23 17 17
23 18 47
23 19 50
23 20 18
23 21 32
23 22 13
24 0 30
24 1 18
24 2 10
24 3 21
24 4 44
24 5 9
24 6 7
24 7 22
24 8 32
24 9 11
24 10 47
24 11 31
24 12 36
24 13 37
24 14 23
24 15 37
24 16 11
24 17 8
24 18 1
24 19 8
24 20 45
24 21 46
24 22 28
24 23 45
25 0 33
25 1 24
25 2 29
25 3 5
25 4 24
25 5 36
25 6 43
25 7 30
25 8 44
25 9 6
25 10 45
25 11 23
25 12 14
25 13 41
25 14 24
25 15 36
25 16 36
25 17 2
25 18 2
25 19 43
25 20 17
25 21 7
25 22 32
25 23 11
25 24 15
26 0 26
26 1 35
26 2 5
26 3 26
26 4 42
26 5 40
26 6 40
26 7 28
26 8 20
26 9 12
26 10 43
26 11 36
26 12 3
26 13 4
26 14 19
26 15 35
26 16 10
26 17 1
26 18 12
26 19 4
26 20 15
26 21 10
26 22 20
26 23 43
26 24 1
26 25 39
27 0 31
27 1 48
27 2 23
27 3 44
27 4 31
27 5 38
27 6 28
27 7 20
27 8 4
27 9 36
27 10 18
27 11 33
27 12 7
27 13 32
27 14 38
27 15 36
27 16 21
27 17 20
27 18 9
27 19 10
27 20 35
27 21 47
27 22 35
27 23 35
27 24 31
27 25 7
27 26 15
28 0 6
28 1 9
28 2 20
28 3 44
28 4 33
28 5 41
28 6 25
28 7 50
28 8 5
28 9 24
28 10 48
28 11 49
28 12 42
28 13 44
28 14 34
28 15 26
28 16 31
28 17 30
28 18 2
28 19 50
28 20 50
28 21 18
28 22 17
28 23 6
28 24 2
28 25 50
28 26 27
28 27 33
29 0 29
29 1 10
29 2 26
29 3 21
29 4 16
29 5 9
29 6 17
29 7 25
29 8 26
29 9 32
29 10 12
29 11 37
29 12 42
29 13 36
29 14 23
29 15 46
29 16 43
29 17 47
29 18 48
29 19 38
29 20 8
29 21 13
29 22 33
29 23 7
29 24 6
29 25 23
29 26 42
29 27 3
29 28 36
30 0 6
30 1 41
30 2 2
30 3 6
30 4 15
30 5 48
30 6 7
30 7 25
30 8 45
30 9 35
30 10 42
30 11 45
30 12 21
30 13 8
30 14 14
30 15 34
30 16 26
30 17 24
30 18 42
30 19 47
30 20 21
30 21 49
30 22 41
30 23 7
30 24 20
30 25 36
30 26 40
30 27 24
30 28 31
30 29 7
31 0 10
31 1 5
31 2 5
31 3 48
31 4 25
31 5 4
31 6 42
31 7 7
31 8 34
31 9 26
31 10 48
31 11 46
31 12 43
31 13 24
31 14 32
31 15 17
31 16 34
31 17 31
31 18 14
31 19 15
31 20 20
31 21 26
31 22 2
31 23 19
31 24 31
31 25 10
31 26 27
31 27 2
31 28 3
31 29 18
31 30 40
32 0 41
32 1 34
32 2 9
32 3 9
32 4 21
32 5 21
32 6 46
32 7 15
32 8 10
32 9 48
32 10 33
32 11 9
32 12 16
32 13 23
32 14 22
32 15 35
32 16 21
32 17 19
32 18 23
32 19 25
32 20 30
32 21 19
32 22 18
32 23 46
32 24 19
32 25 13
32 26 8
32 27 14
32 28 28
32 29 14
32 30 13
32 31 44
33 0 7
33 1 26
33 2 22
33 3 30
33 4 14
33 5 38
33 6 9
33 7 25
33 8 6
33 9 20
33 10 5
33 11 20
33 12 25
33 13 14
33 14 49
33 15 47
33 16 47
33 17 6
33 18 14
33 19 36
33 20 50
33 21 32
33 22 6
33 23 31
33 24 15
33 25 41
33 26 21
33 27 7
33 28 29
33 29 9
33 30 17
33 31 32
33 32 27
34 0 21
34 1 19
34 2 31
34 3 36
34 4 48
34 5 43
34 6 34
34 7 6
34 8 50
34 9 17
34 10 19
34 11 34
34 12 36
34 13 28
34 14 25
34 15 40
34 16 44
34 17 40
34 18 18
34 19 16
34 20 48
34 21 29
34 22 50
34 23 44
34 24 16
34 25 19
34 26 31
34 27 17
34 28 30
34 29 39
34 30 27
34 31 50
34 32 39
34 33 41
35 0 18
35 1 18
35 2 44
35 3 45
35 4 12
35 5 3
35 6 2
35 7 28
35 8 38
35 9 8
35 10 41
35 11 22
35 12 12
35 13 33
35 14 36
35 15 40
35 16 34
35 17 4
35 18 47
35 19 6
35 20 1
35 21 34
35 22 30
35 23 44
35 24 49
35 25 18
35 26 21
35 27 12
35 28 39
35 29 21
35 30 30
35 31 15
35 32 33
35 33 34
35 34 31
36 0 27
36 1 37
36 2 41
36 3 8
36 4 3
36 5 46
36 6 37
36 7 7
36 8 1
36 9 30
36 10 14
36 11 36
36 12 23
36 13 33
36 14 43
36 15 50
36 16 9
36 17 40
36 18 26
36 19 15
36 20 26
36 21 8
36 22 40
36 23 29
36 24 11
36 25 4
36 26 3
36 27 13
36 28 29
36 29 6
36 30 25
36 31 28
36 32 36
36 33 41
36 34 40
36 35 9
37 0 32
37 1 43
37 2 5
37 3 30
37 4 14
37 5 29
37 6 3
37 7 43
37 8 47
37 9 46
37 10 38
37 11 8
37 12 30
37 13 22
37 14 47
37 15 33
37 16 8
37 17 37
37 18 46
37 19 43
37 20 26
37 21 33
37 22 50
37 23 30
37 24 48
37 25 45
37 26 14
37 27 8
37 28 25
37 29 2
37 30 10
37 31 50
37 32 1
37 33 11
37 34 9
37 35 29
37 36 7
38 0 29
38 1 15
38 2 1
38 3 27
38 4 32
38 5 37
38 6 1
38 7 1
38 8 48
38 9 24
38 10 24
38 11 13
38 12 43
38 13 24
38 14 41
38 15 29
38 16 5
38 17 21
38 18 35
38 19 35
38 20 31
38 21 29
38 22 46
38 23 25
38 24 40
38 25 26
38 26 28
38 27 13
38 28 3
38 29 31
38 30 32
38 31 47
38 32 19
38 33 34
38 34 37
38 35 18
38 36 21
38 37 3
39 0 35
39 1 15
39 2 8
39 3 8
39 4 2
39 5 15
39 6 50
39 7 7
39 8 39
39 9 46
39 10 15
39 11 5
39 12 41
39 13 24
39 14 18
39 15 24
39 16 11
39 17 10
39 18 16
39 19 47
39 20 35
39 21 8
39 22 41
39 23 10
39 24 24
39 25 38
39 26 47
39 27 34
39 28 12
39 29 24
39 30 12
39 31 35
39 32 32
39 33 50
39 34 29
39 35 46
39 36 49
39 37 11
39 38 1
40 0 42
40 1 30
40 2 30
40 3 16
40 4 40
40 5 19
40 6 37
40 7 23
40 8 47
40 9 16
40 10 25
40 11 23
40 12 37
40 13 4
40 14 31
40 15 12
40 16 10
40 17 45
40 18 46
40 19 21
40 20 47
40 21 15
40 22 27
40 23 16
40 24 37
40 25 31
40 26 33
40 27 20
40 28 47
40 29 11
40 30 39
40 31 2
40 32 13
40 33 35
40 34 25
40 35 18
40 36 33
40 37 35
40 38 6
40 39 26
41 0 13
41 1 11
41 2 50
41 3 32
41 4 31
41 5 5
41 6 7
41 7 12
41 8 38
41 9 32
41 10 14
41 11 50
41 12 37
41 13 5
41 14 2
41 15 3
41 16 39
41 17 27
41 18 14
41 19 15
41 20 7
41 21 42
41 22 2
41 23 14
41 24 10
41 25 44
41 26 42
41 27 30
41 28 32
41 29 5
41 30 42
41 31 11
41 32 22
41 33 26
41 34 22
41 35 40
41 36 13
41 37 39
41 38 5
41 39 43
41 40 20
42 0 17
42 1 38
42 2 42
42 3 14
42 4 11
42 5 41
42 6 46
42 7 16
42 8 24
42 9 36
42 10 21
42 11 24
42 12 1
42 13 32
42 14 1
42 15 48
42 16 16
42 17 27
42 18 6
42 19 43
42 20 34
42 21 9
42 22 14
42 23 30
42 24 22
42 25 8
42 26 12
42 27 29
42 28 35
42 29 16
42 30 6
42 31 17
42 32 19
42 33 32
42 34 48
42 35 11
42 36 27
42 37 20
42 38 19
42 39 10
42 40 24
42 41 6
43 0 11
43 1 23
43 2 47
43 3 16
43 4 25
43 5 40
43 6 19
43 7 33
43 8 42
43 9 5
43 10 11
43 11 40
43 12 18
43 13 22
43 14 30
43 15 20
43 16 28
43 17 11
43 18 42
43 19 17
43 20 48
43 21 47
43 22 43
43 23 1
43 24 8
43 25 50
43 26 2
43 27 21
43 28 37
43 29 2
43 30 26
43 31 13
43 32 20
43 33 24
43 34 35
43 35 14
43 36 42
43 37 13
43 38 29
43 39 35
43 40 22
43 41 4
43 42 9
44 0 7
44 1 48
44 2 25
44 3 50
44 4 43
44 5 30
44 6 48
44 7 30
44 8 43
44 9 6
44 10 5
44 11 22
44 12 13
44 13 44
44 14 15
44 15 41
44 16 1
44 17 8
44 18 26
44 19 17
44 20 49
44 21 44
44 22 15
44 23 8
44 24 31
44 25 46
44 26 34
44 27 25
44 28 8
44 29 7
44 30 49
44 31 28
44 32 46
44 33 15
44 34 39
44 35 47
44 36 46
44 37 13
44 38 4
44 39 29
44 40 8
44 41 4
44 42 33
44 43 16
45 0 15
45 1 11
45 2 20
45 3 49
45 4 16
45 5 22
45 6 47
45 7 23
45 8 31
45 9 29
45 10 15
45 11 45
45 12 33
45 13 13
45 14 28
45 15 31
45 16 41
45 17 41
45 18 41
45 19 37
45 20 24
45 21 14
45 22 47
45 23 43
45 24 9
45 25 24
45 26 40
45 27 29
45 28 27
45 29 48
45 30 41
45 31 2
45 32 7
45 33 36
45 34 31
45 35 24
45 36 38
45 37 1
45 38 25
45 39 50
45 40 22
45 41 21
45 42 6
45 43 8
45 44 24
46 0 1
46 1 44
46 2 16
46 3 13
46 4 34
46 5 41
46 6 24
46 7 10
46 8 18
46 9 43
46 10 15
46 11 44
46 12 6
46 13 31
46 14 23
46 15 33
46 16 18
46 17 26
46 18 27
46 19 12
46 20 15
46 21 36
46 22 5
46 23 23
46 24 42
46 25 40
46 26 33
46 27 45
46 28 7
46 29 41
46 30 34
46 31 10
46 32 40
46 33 31
46 34 37
46 35 6
46 36 18
46 37 43
46 38 40
46 39 43
46 40 22
46 41 47
46 42 39
46 43 8
46 44 42
46 45 43
47 0 3
47 1 48
47 2 18
47 3 46
47 4 43
47 5 42
47 6 12
47 7 13
47 8 15
47 9 38
47 10 14
47 11 9
47 12 27
47 13 13
47 14 18
47 15 23
47 16 30
47 17 22
47 18 31
47 19 9
47 20 35
47 21 32
47 22 36
47 23 42
47 24 44
47 25 8
47 26 40
47 27 27
47 28 37
47 29 32
47 30 4
47 31 46
47 32 5
47 33 5
47 34 21
47 35 33
47 36 14
47 37 26
47 38 49
47 39 5
47 40 8
47 41 27
47 42 1
47 43 8
47 44 4
47 45 41
47 46 14
48 0 22
48 1 22
48 2 38
48 3 40
48 4 33
48 5 26
48 6 2
48 7 40
48 8 6
48 9 47
48 10 50
48 11 1
48 12 23
48 13 19
48 14 35
48 15 45
48 16 39
48 17 5
48 18 18
48 19 10
48 20 22
48 21 1
48 22 21
48 23 6
48 24 35
48 25 16
48 26 30
48 27 47
48 28 41
48 29 1
48 30 19
48 31 38
48 32 47
48 33 47
48 34 49
48 35 43
48 36 18
48 37 6
48 38 41
48 39 35
48 40 46
48 41 8
48 42 49
48 43 42
48 44 11
48 45 32
48 46 48
48 47 45
49 0 18
49 1 13
49 2 1
49 3 26
49 4 14
49 5 15
49 6 42
49 7 11
49 8 33
49 9 38
49 10 8
49 11 6
49 12 14
49 13 11
49 14 36
49 15 7
49 16 12
49 17 1
49 18 34
49 19 20
49 20 9
49 21 36
49 22 17
49 23 24
49 24 36
49 25 33
49 26 36
49 27 4
49 28 27
49 29 5
49 30 31
49 31 6
49 32 49
49 33 21
49 34 38
49 35 15
49 36 2
49 37 6
49 38 24
49 39 43
49 40 47
49 41 44
49 42 8
49 43 33
49 44 49
49 45 31
49 46 45
49 47 9
49 48 11
50 0 31
50 1 28
50 2 5
50 3 1
50 4 42
50 5 3
50 6 6
50 7 33
50 8 14
50 9 19
50 10 28
50 11 38
50 12 39
50 13 48
50 14 49
50 15 35
50 16 43
50 17 6
50 18 21
50 19 38
50 20 13
50 21 48
50 22 19
50 23 22
50 24 12
50 25 37
50 26 28
50 27 11
50 28 8
50 29 34
50 30 46
50 31 37
50 32 33
50 33 40
50 34 27
50 35 7
50 36 13
50 37 3
50 38 17
50 39 49
50 40 27
50 41 48
50 42 2
50 43 9
50 44 11
50 45 33
50 46 8
50 47 38
50 48 18
50 49 44
51 0 30
51 1 3
51 2 9
51 3 8
51 4 43
51 5 17
51 6 29
51 7 32
51 8 38
51 9 23
51 10 32
51 11 1
51 12 33
51 13 3
51 14 46
51 15 30
51 16 5
51 17 32
51 18 41
51 19 19
51 20 31
51 21 18
51 22 32
51 23 37
51 24 1
51 25 28
51 26 10
51 27 12
51 28 27
51 29 48
51 30 48
51 31 21
51 32 21
51 33 29
51 34 42
51 35 33
51 36 5
51 37 23
51 38 34
51 39 28
51 40 44
51 41 39
51 42 31
51 43 19
51 44 38
51 45 7
51 46 49
51 47 22
51 48 47
51 49 40
51 50 18
52 0 25
52 1 48
52 2 21
52 3 9
52 4 36
52 5 39
52 6 21
52 7 42
52 8 24
52 9 50
52 10 8
52 11 47
52 12 9
52 13 4
52 14 19
52 15 36
52 16 7
52 17 19
52 18 37
52 19 14
52 20 31
52 21 14
52 22 14
52 23 21
52 24 9
52 25 35
52 26 12
52 27 2
52 28 28
52 29 42
52 30 29
52 31 33
52 32 33
52 33 47
52 34 1
52 35 11
52 36 50
52 37 9
52 38 26
52 39 16
52 40 39
52 41 24
52 42 26
52 43 36
52 44 3
52 45 21
52 46 18
52 47 32
52 48 38
52 49 24
52 50 32
52 51 49
53 0 38
53 1 41
53 2 25
53 3 43
53 4 10
53 5 41
53 6 8
53 7 48
53 8 17
53 9 8
53 10 45
53 11 18
53 12 16
53 13 25
53 14 37
53 15 8
53 16 7
53 17 31
53 18 12
53 19 46
53 20 31
53 21 39
53 22 3
53 23 40
53 24 42
53 25 38
53 26 30
53 27 35
53 28 31
53 29 26
53 30 23
53 31 7
53 32 3
53 33 45
53 34 39
53 35 18
53 36 48
53 37 16
53 38 34
53 39 3
53 40 39
53 41 34
53 42 6
53 43 38
53 44 26
53 45 47
53 46 14
53 47 27
53 48 34
53 49 47
53 50 1
53 51 43
53 52 47
54 0 25
54 1 1
54 2 27
54 3 24
54 4 41
54 5 42
54 6 11
54 7 5
54 8 46
54 9 42
54 10 40
54 11 15
54 12 14
54 13 35
54 14 36
54 15 8
54 16 9
54 17 2
54 18 3
54 19 39
54 20 27
54 21 23
54 22 43
54 23 19
54 24 38
54 25 42
54 26 5
54 27 22
54 28 15
54 29 35
54 30 11
54 31 28
54 32 46
54 33 10
54 34 11
54 35 36
54 36 35
54 37 44
54 38 27
54 39 18
54 40 14
54 41 9
54 42 28
54 43 11
54 44 50
54 45 25
54 46 1
54 47 3
54 48 1
54 49 14
54 50 49
54 51 32
54 52 10
54 53 19
55 0 9
55 1 18
55 2 31
55 3 26
55 4 29
55 5 48
55 6 6
55 7 49
55 8 44
55 9 27
55 10 49
55 11 24
55 12 42
55 13 15
55 14 32
55 15 47
55 16 4
55 17 30
55 18 12
55 19 46
55 20 27
55 21 1
55 22 17
55 23 22
55 24 31
55 25 46
55 26 1
55 27 34
55 28 3
55 29 22
55 30 12
55 31 48
55 32 33
55 33 43
55 34 8
55 35 40
55 36 34
55 37 46
55 38 48
55 39 41
55 40 18
55 41 34
55 42 4
55 43 5
55 44 7
55 45 24
55 46 2
55 47 4
55 48 6
55 49 32
55 50 24
55 51 5
55 52 11
55 53 36
55 54 32
56 0 13
56 1 49
56 2 20
56 3 41
56 4 4
56 5 33
56 6 23
56 7 17
56 8 18
56 9 33
56 10 20
56 11 2
56 12 41
56 13 44
56 14 28
56 15 23
56 16 41
56 17 40
56 18 40
56 19 3
56 20 9
56 21 16
56 22 19
56 23 18
56 24 32
56 25 38
56 26 8
56 27 27
56 28 32
56 29 21
56 30 29
56 31 13
56 32 26
56 33 30
56 34 44
56 35 21
56 36 23
56 37 8
56 38 28
56 39 9
56 40 10
56 41 38
56 42 12
56 43 36
56 44 45
56 45 26
56 46 1
56 47 10
56 48 32
56 49 40
56 50 13
56 51 6
56 52 4
56 53 7
56 54 22
56 55 48
57 0 31
57 1 39
57 2 14
57 3 41
57 4 41
57 5 4
57 6 27
57 7 26
57 8 6
57 9 46
57 10 50
57 11 8
57 12 8
57 13 44
57 14 28
57 15 16
57 16 48
57 17 36
57 18 31
57 19 21
57 20 45
57 21 25
57 22 41
57 23 32
57 24 21
57 25 18
57 26 16
57 27 32
57 28 39
57 29 36
57 30 40
57 31 4
57 32 5
57 33 32
57 34 39
57 35 19
57 36 33
57 37 18
57 38 26
57 39 25
57 40 27
57 41 12
57 42 49
57 43 24
57 44 20
57 45 49
57 46 38
57 47 6
57 48 20
57 49 19
57 50 13
57 51 3
57 52 31
57 53 17
57 54 12
57 55 1
57 56 10
58 0 39
58 1 27
58 2 10
58 3 17
58 4 23
58 5 34
58 6 34
58 7 30
58 8 15
58 9 32
58 10 45
58 11 19
58 12 18
58 13 49
58 14 2
58 15 20
58 16 31
58 17 4
58 18 1
58 19 33
58 20 16
58 21 11
58 22 33
58 23 47
58 24 27
58 25 39
58 26 5
58 27 10
58 28 50
58 29 36
58 30 14
58 31 12
58 32 30
58 33 8
58 34 17
58 35 11
58 36 49
58 37 43
58 38 21
58 39 28
58 40 8
58 41 21
58 42 31
58 43 34
58 44 7
58 45 11
58 46 32
58 47 40
58 48 37
58 49 47
58 50 16
58 51 2
58 52 24
58 53 12
58 54 31
58 55 6
58 56 45
58 57 50
59 0 23
59 1 30
59 2 42
59 3 11
59 4 44
59 5 27
59 6 21
59 7 30
59 8 33
59 9 41
59 10 49
59 11 49
59 12 25
59 13 36
59 14 47
59 15 31
59 16 8
59 17 14
59 18 28
59 19 38
59 20 16
59 21 35
59 22 45
59 23 2
59 24 43
59 25 39
59 26 27
59 27 35
59 28 11
59 29 48
59 30 50
59 31 22
59 32 24
59 33 45
59 34 24
59 35 37
59 36 44
59 37 9
59 38 47
59 39 38
59 40 26
59 41 38
59 42 9
59 43 4
59 44 29
59 45 23
59 46 33
59 47 7
59 48 25
59 49 13
59 50 12
59 51 43
59 52 25
59 53 20
59 54 42
59 55 4
59 56 48
59 57 26
59 58 4
